NAME: ACTUAL_TOURS/amz1631
TYPE: TOUR
COMMENT: RouteID_af73a049-08d5-4e06-8569-c14b5c960688
DIMENSION: 162
TOUR_SECTION
112
134
75
162
29
91
60
109
18
56
32
63
10
5
117
159
48
47
94
155
6
44
152
116
34
97
17
92
80
127
157
4
43
40
148
67
113
105
22
64
7
81
115
1
108
135
73
13
79
123
66
26
121
143
2
153
141
20
98
129
39
160
14
72
107
150
128
51
146
74
96
122
3
145
30
21
62
36
102
142
126
158
82
131
58
111
147
149
138
118
12
114
55
93
99
161
45
144
68
119
24
86
11
23
139
78
120
89
35
38
53
37
25
28
8
76
154
46
71
136
83
49
41
70
125
16
151
42
87
19
106
69
54
100
52
133
27
50
31
9
85
77
101
137
61
84
90
15
104
103
130
59
124
132
33
57
88
95
65
110
140
156
-1
EOF
